
Gurobi 7.0.1 (linux64) logging started Sun Jul  2 20:12:45 2017

Optimize a model with 21691 rows, 14464 columns and 65448 nonzeros
Variable types: 0 continuous, 14464 integer (14464 binary)
Coefficient statistics:
  Matrix range     [1e+00, 9e+00]
  Objective range  [1e+00, 1e+00]
  Bounds range     [1e+00, 1e+00]
  RHS range        [1e+00, 5e+01]
Presolve removed 20815 rows and 13584 columns
Presolve time: 0.05s
Presolved: 876 rows, 880 columns, 6069 nonzeros
Variable types: 0 continuous, 880 integer (880 binary)

Root relaxation: objective 3.850000e+01, 49 iterations, 0.00 seconds

    Nodes    |    Current Node    |     Objective Bounds      |     Work
 Expl Unexpl |  Obj  Depth IntInf | Incumbent    BestBd   Gap | It/Node Time

     0     0   38.50000    0    4          -   38.50000      -     -    0s
H    0     0                      27.0000000   38.50000  42.6%     -    0s
     0     0   38.00000    0   16   27.00000   38.00000  40.7%     -    0s
     0     0   38.00000    0   15   27.00000   38.00000  40.7%     -    0s
     0     0   38.00000    0   14   27.00000   38.00000  40.7%     -    0s
     0     0   38.00000    0    2   27.00000   38.00000  40.7%     -    0s
     0     0   38.00000    0    2   27.00000   38.00000  40.7%     -    0s
     0     2   38.00000    0    2   27.00000   38.00000  40.7%     -    0s
H   30    34                      28.0000000   38.00000  35.7%  14.5    0s

Cutting planes:
  Gomory: 3
  Clique: 12
  MIR: 2
  Inf proof: 6
  Lazy constraints: 23

Explored 372 nodes (1861 simplex iterations) in 0.57 seconds
Thread count was 12 (of 12 available processors)

Solution count 2: 28 27 
Pool objective bound 28

Optimal solution found (tolerance 1.00e-04)
Best objective 2.800000000000e+01, best bound 2.800000000000e+01, gap 0.0000%
Optimize a model with 21691 rows, 14464 columns and 65448 nonzeros
Variable types: 0 continuous, 14464 integer (14464 binary)
Coefficient statistics:
  Matrix range     [1e+00, 9e+00]
  Objective range  [4e-01, 6e-01]
  Bounds range     [1e+00, 1e+00]
  RHS range        [1e+00, 5e+01]
Presolve removed 20815 rows and 13584 columns
Presolve time: 0.03s
Presolved: 876 rows, 880 columns, 6069 nonzeros

Loaded MIP start with objective -2.88658e-15

Variable types: 0 continuous, 880 integer (880 binary)

Root relaxation: objective 9.694444e+00, 40 iterations, 0.00 seconds

    Nodes    |    Current Node    |     Objective Bounds      |     Work
 Expl Unexpl |  Obj  Depth IntInf | Incumbent    BestBd   Gap | It/Node Time

     0     0    9.69444    0    5   -0.00000    9.69444      -     -    0s
H    0     0                       4.5833333    9.69444   112%     -    0s
     0     0    9.58333    0    4    4.58333    9.58333   109%     -    0s
     0     0    9.55000    0    7    4.58333    9.55000   108%     -    0s
     0     0    9.52778    0    7    4.58333    9.52778   108%     -    0s
     0     0    9.52778    0    7    4.58333    9.52778   108%     -    0s
     0     2    9.52778    0    7    4.58333    9.52778   108%     -    0s

Cutting planes:
  Gomory: 2
  Clique: 12
  MIR: 2
  Lazy constraints: 19

Explored 22 nodes (147 simplex iterations) in 0.45 seconds
Thread count was 12 (of 12 available processors)

Solution count 2: 4.58333 -2.88658e-15 
Pool objective bound 4.58333

Optimal solution found (tolerance 1.00e-04)
Best objective 4.583333333333e+00, best bound 4.583333333333e+00, gap 0.0000%
Optimize a model with 21691 rows, 14464 columns and 65448 nonzeros
Variable types: 0 continuous, 14464 integer (14464 binary)
Coefficient statistics:
  Matrix range     [1e+00, 9e+00]
  Objective range  [3e-01, 7e-01]
  Bounds range     [1e+00, 1e+00]
  RHS range        [1e+00, 5e+01]
Presolve removed 20815 rows and 13584 columns
Presolve time: 0.03s
Presolved: 876 rows, 880 columns, 6069 nonzeros

Loaded MIP start with objective -7.77156e-16

Variable types: 0 continuous, 880 integer (880 binary)

Root relaxation: objective 4.857143e+00, 39 iterations, 0.00 seconds

    Nodes    |    Current Node    |     Objective Bounds      |     Work
 Expl Unexpl |  Obj  Depth IntInf | Incumbent    BestBd   Gap | It/Node Time

     0     0    4.85714    0   11   -0.00000    4.85714      -     -    0s
     0     0    4.57143    0    2   -0.00000    4.57143      -     -    0s
     0     0    4.50000    0    5   -0.00000    4.50000      -     -    0s
     0     0    4.50000    0    5   -0.00000    4.50000      -     -    0s
H    0     0                       0.2857143    4.50000  1475%     -    0s
     0     2    4.50000    0    5    0.28571    4.50000  1475%     -    0s
H   21     8                       0.4285714    1.32540   209%   5.9    0s
H   24     4                       1.0000000    1.31429  31.4%   5.7    0s

Cutting planes:
  Gomory: 2
  Clique: 12
  MIR: 1
  Lazy constraints: 15

Explored 38 nodes (264 simplex iterations) in 0.44 seconds
Thread count was 12 (of 12 available processors)

Solution count 4: 1 0.428571 0.285714 -7.77156e-16 
Pool objective bound 1

Optimal solution found (tolerance 1.00e-04)
Best objective 1.000000000000e+00, best bound 1.000000000000e+00, gap 0.0000%
Optimize a model with 21691 rows, 14464 columns and 65448 nonzeros
Variable types: 0 continuous, 14464 integer (14464 binary)
Coefficient statistics:
  Matrix range     [1e+00, 9e+00]
  Objective range  [2e-01, 8e-01]
  Bounds range     [1e+00, 1e+00]
  RHS range        [1e+00, 5e+01]
Presolve removed 20815 rows and 13584 columns
Presolve time: 0.03s
Presolved: 876 rows, 880 columns, 6069 nonzeros

Loaded MIP start with objective 8.88178e-16

Variable types: 0 continuous, 880 integer (880 binary)

Root relaxation: objective 3.539683e+00, 36 iterations, 0.00 seconds

    Nodes    |    Current Node    |     Objective Bounds      |     Work
 Expl Unexpl |  Obj  Depth IntInf | Incumbent    BestBd   Gap | It/Node Time

     0     0    3.53968    0    5    0.00000    3.53968      -     -    0s
     0     0    3.19048    0    2    0.00000    3.19048      -     -    0s
     0     0    3.08571    0    5    0.00000    3.08571      -     -    0s
     0     0    3.01587    0    5    0.00000    3.01587      -     -    0s
     0     0    3.01587    0    5    0.00000    3.01587      -     -    0s
     0     2    3.01587    0    5    0.00000    3.01587      -     -    0s

Cutting planes:
  Gomory: 1
  Clique: 12
  MIR: 2
  Lazy constraints: 14

Explored 22 nodes (191 simplex iterations) in 0.41 seconds
Thread count was 12 (of 12 available processors)

Solution count 1: 8.88178e-16 
Pool objective bound 8.88178e-16

Optimal solution found (tolerance 1.00e-04)
Best objective 8.881784197001e-16, best bound 8.881784197001e-16, gap -
